100 10
949 751
654 516
545 238
627 309
266 128
288 633
453 551
409 510
308 662
373 374
645 491
275 592
303 460
627 239
154 608
819 589
102 714
397 512
368 439
366 290
339 451
447 809
371 362
856 672
530 267
218 492
421 659
585 143
209 132
253 415
544 418
976 353
271 663
581 308
543 681
253 309
135 689
227 664
443 692
433 629
547 674
247 319
517 405
641 352
437 830
799 819
532 504
884 437
538 635
102 642
517 558
365 316
102 610
800 528
228 335
282 654
406 636
324 525
679 559
416 325
492 382
711 591
343 75
364 360
520 514
527 590
492 420
431 550
424 241
851 582
531 537
433 727
494 785
259 387
380 398
581 418
857 697
676 778
453 456
275 587
323 232
769 718
626 397
565 105
448 458
512 470
462 404
604 413
460 434
123 540
336 205
483 356
114 415
463 118
354 625
515 467
516 490
428 434
563 411
334 456
